HEIGHT = 13;
WIDTH = 11;
AGENTS = 4;

path = array2d(1..AGENTS, Marker,
  [|(y: 5, x: 1, d: ">"), (y: 9, x: 11, d: ">")
   |(y: 6, x: 1, d: ">"), (y: 8, x: 11, d: ">")
   |(y: 8, x: 1, d: ">"), (y: 5, x: 11, d: ">")
   |(y: 9, x: 1, d: ">"), (y: 6, x: 11, d: ">")|]);
